Minimize

2.0 x_0 + 3.0 x_1 + 5.0 x_2 + 3.5 x_3 + 1.5 x_4


Subject To

a0: 0 x_0 + 0 x_1 + 1 x_2 + 1 x_3 + 0 x_4 >= 1
a1: 1 x_0 + 0 x_1 + 0 x_2 + 0 x_3 + 0 x_4 >= 1
a2: 1 x_0 + 0 x_1 + 0 x_2 + 1 x_3 + 0 x_4 >= 1
a3: 0 x_0 + 1 x_1 + 0 x_2 + 1 x_3 + 1 x_4 >= 1
a4: 0 x_0 + 0 x_1 + 1 x_2 + 0 x_3 + 1 x_4 >= 1
b0: 1 x_0 - y_0 <= 0
b1: 1 x_1 - y_0 <= 0
b2: 1 x_2 - y_0 <= 0
b3: 0 x_3 - y_0 <= 0
b4: 0 x_4 - y_0 <= 0
b5: 0 x_0 - y_1 <= 0
b6: 0 x_1 - y_1 <= 0
b7: 0 x_2 - y_1 <= 0
b8: 0 x_3 - y_1 <= 0
b9: 1 x_4 - y_1 <= 0
b10: 0 x_0 - y_2 <= 0
b11: 0 x_1 - y_2 <= 0
b12: 0 x_2 - y_2 <= 0
b13: 1 x_3 - y_2 <= 0
b14: 0 x_4 - y_2 <= 0
c0: y_0 + y_1 + y_2 <= 2




Binary

x_0 x_1 x_2 x_3 x_4 y_0 y_1 y_2

 


End
